(set-info :source |printed by MathSAT|)
(declare-fun |.x{738}| () Int)
(declare-fun |.x{1056}| () Int)
(declare-fun |.x{739}| () (Array Int Int))
(declare-fun |.x{1057}| () (Array Int Int))
(declare-fun |.x{740}| () (Array Int Int))
(declare-fun |.x{1058}| () (Array Int Int))
(declare-fun |.x{741}| () (Array Int (Array Int Int)))
(declare-fun |.x{1059}| () (Array Int (Array Int Int)))
(declare-fun |.x{742}| () (Array Int (Array Int Int)))
(declare-fun |.x{1060}| () (Array Int (Array Int Int)))
(declare-fun |.x{743}| () Int)
(declare-fun |.x{1061}| () Int)
(declare-fun |.x{744}| () Int)
(declare-fun |.x{1062}| () Int)
(declare-fun |.x{745}| () (Array Int Int))
(declare-fun |.x{1063}| () (Array Int Int))
(declare-fun |.x{746}| () (Array Int Int))
(declare-fun |.x{1064}| () (Array Int Int))
(declare-fun |.x{747}| () Int)
(declare-fun |.x{1065}| () Int)
(declare-fun |.x{748}| () Int)
(declare-fun |.x{1066}| () Int)
(declare-fun |.x{749}| () Int)
(declare-fun |.x{1067}| () Int)
(declare-fun |.x{750}| () Int)
(declare-fun |.x{1068}| () Int)
(declare-fun |.x{751}| () Int)
(declare-fun |.x{1069}| () Int)
(declare-fun |.x{775}| () Int)
(declare-fun |.x{1070}| () Int)
(declare-fun |.x{753}| () Int)
(declare-fun |.x{1071}| () Int)
(declare-fun |.x{754}| () Int)
(declare-fun |.x{1072}| () Int)
(declare-fun |.x{755}| () Int)
(declare-fun |.x{1073}| () Int)
(declare-fun |.x{756}| () Int)
(declare-fun |.x{1074}| () Int)
(declare-fun |.x{780}| () Int)
(declare-fun |.x{1075}| () Int)
(declare-fun |.x{758}| () Int)
(declare-fun |.x{1076}| () Int)
(declare-fun |.x{759}| () Int)
(declare-fun |.x{1077}| () Int)
(declare-fun |.x{760}| () Bool)
(declare-fun |.x{1032}| () Bool)
(declare-fun |.loc{4}| () Bool)
(declare-fun |.loc{7}| () Bool)
(declare-fun |.loc{5}| () Bool)
(declare-fun |.loc{8}| () Bool)
(declare-fun |.loc{6}| () Bool)
(declare-fun |.loc{9}| () Bool)
(declare-fun |.x{91}| () (Array Int Int))
(declare-fun |.x{646}| () Int)
(define-fun .def_56 () Bool (! |.loc{5}| :next |.loc{8}|))
(define-fun .def_71 () Bool (not .def_56))
(define-fun .def_54 () Bool (! |.loc{4}| :next |.loc{7}|))
(define-fun .def_67 () Bool (not .def_54))
(define-fun .def_362 () Bool (and .def_67 .def_71))
(define-fun .def_58 () Bool (! |.loc{6}| :next |.loc{9}|))
(define-fun .def_63 () Bool (not .def_58))
(define-fun .def_363 () Bool (and .def_63 .def_362))
(define-fun .def_28 () Int (! |.x{748}| :next |.x{1066}|))
(define-fun .def_26 () Int (! |.x{747}| :next |.x{1065}|))
(define-fun .def_356 () Bool (= .def_26 .def_28))
(define-fun .def_16 () (Array Int (Array Int Int)) (! |.x{742}| :next |.x{1060}|))
(define-fun .def_14 () (Array Int (Array Int Int)) (! |.x{741}| :next |.x{1059}|))
(define-fun .def_355 () Bool (= .def_14 .def_16))
(define-fun .def_357 () Bool (and .def_355 .def_356))
(define-fun .def_20 () Int (! |.x{744}| :next |.x{1062}|))
(define-fun .def_18 () Int (! |.x{743}| :next |.x{1061}|))
(define-fun .def_354 () Bool (= .def_18 .def_20))
(define-fun .def_358 () Bool (and .def_354 .def_357))
(define-fun .def_24 () (Array Int Int) (! |.x{746}| :next |.x{1064}|))
(define-fun .def_22 () (Array Int Int) (! |.x{745}| :next |.x{1063}|))
(define-fun .def_353 () Bool (= .def_22 .def_24))
(define-fun .def_359 () Bool (and .def_353 .def_358))
(define-fun .def_52 () Bool (! |.x{760}| :next |.x{1032}|))
(define-fun .def_352 () Bool (not .def_52))
(define-fun .def_360 () Bool (and .def_352 .def_359))
(define-fun .def_12 () (Array Int Int) (! |.x{740}| :next |.x{1058}|))
(define-fun .def_10 () (Array Int Int) (! |.x{739}| :next |.x{1057}|))
(define-fun .def_351 () Bool (= .def_10 .def_12))
(define-fun .def_361 () Bool (and .def_351 .def_360))
(define-fun .def_364 () Bool (! (and .def_361 .def_363) :init true))
(define-fun .def_348 () Bool (= .def_20 |.x{1062}|))
(define-fun .def_346 () Bool (= .def_16 |.x{1060}|))
(define-fun .def_344 () Bool (= .def_12 |.x{1058}|))
(define-fun .def_8 () Int (! |.x{738}| :next |.x{1056}|))
(define-fun .def_342 () Bool (= .def_8 |.x{1056}|))
(define-fun .def_340 () Bool (= .def_24 |.x{1064}|))
(define-fun .def_339 () Bool (= .def_28 |.x{1066}|))
(define-fun .def_341 () Bool (and .def_339 .def_340))
(define-fun .def_343 () Bool (and .def_341 .def_342))
(define-fun .def_345 () Bool (and .def_343 .def_344))
(define-fun .def_347 () Bool (and .def_345 .def_346))
(define-fun .def_349 () Bool (and .def_347 .def_348))
(define-fun .def_336 () Bool (= .def_22 |.x{1063}|))
(define-fun .def_334 () Bool (= .def_18 |.x{1061}|))
(define-fun .def_245 () Bool (= |.x{1070}| 0))
(define-fun .def_311 () Bool (or .def_52 .def_245))
(define-fun .def_30 () Int (! |.x{749}| :next |.x{1067}|))
(define-fun .def_61 () Bool (= .def_30 |.x{1067}|))
(define-fun .def_218 () Bool (and |.x{1032}| .def_61))
(define-fun .def_34 () Int (! |.x{751}| :next |.x{1069}|))
(define-fun .def_115 () Bool (= .def_34 |.x{1069}|))
(define-fun .def_219 () Bool (and .def_115 .def_218))
(define-fun .def_48 () Int (! |.x{758}| :next |.x{1076}|))
(define-fun .def_119 () Bool (= .def_48 |.x{1076}|))
(define-fun .def_310 () Bool (and .def_119 .def_219))
(define-fun .def_312 () Bool (and .def_310 .def_311))
(define-fun .def_313 () Bool (and .def_67 .def_312))
(define-fun .def_42 () Int (! |.x{755}| :next |.x{1073}|))
(define-fun .def_232 () Bool (<= .def_42 1024))
(define-fun .def_233 () Int (ite .def_232 1 0))
(define-fun .def_234 () Bool (= |.x{1075}| .def_233))
(define-fun .def_230 () Bool (= |.x{1070}| |.x{1075}|))
(define-fun .def_235 () Bool (and .def_230 .def_234))
(define-fun .def_236 () Bool (or .def_52 .def_235))
(define-fun .def_314 () Bool (and .def_236 .def_313))
(define-fun .def_131 () Bool (= .def_10 |.x{1057}|))
(define-fun .def_315 () Bool (and .def_131 .def_314))
(define-fun .def_306 () (Array Int Int) (store .def_10 .def_34 0))
(define-fun .def_307 () Bool (= |.x{1057}| .def_306))
(define-fun .def_308 () Bool (or .def_52 .def_307))
(define-fun .def_300 () Bool (= |.x{1067}| |.x{1071}|))
(define-fun .def_301 () Bool (or |.x{1032}| .def_300))
(define-fun .def_302 () Bool (and .def_54 .def_301))
(define-fun .def_65 () Bool (= .def_52 |.x{1032}|))
(define-fun .def_303 () Bool (and .def_65 .def_302))
(define-fun .def_46 () Int (! |.x{780}| :next |.x{1075}|))
(define-fun .def_69 () Bool (= .def_46 |.x{1075}|))
(define-fun .def_304 () Bool (and .def_69 .def_303))
(define-fun .def_36 () Int (! |.x{775}| :next |.x{1070}|))
(define-fun .def_73 () Bool (= .def_36 |.x{1070}|))
(define-fun .def_305 () Bool (and .def_73 .def_304))
(define-fun .def_309 () Bool (and .def_305 .def_308))
(define-fun .def_316 () Bool (or .def_309 .def_315))
(define-fun .def_317 () Bool (and .def_58 .def_316))
(define-fun .def_318 () Bool (and .def_71 .def_317))
(define-fun .def_319 () Bool (and |.loc{8}| .def_318))
(define-fun .def_116 () Bool (and .def_61 .def_115))
(define-fun .def_290 () Bool (and .def_116 .def_119))
(define-fun .def_60 () Bool (not |.loc{8}|))
(define-fun .def_291 () Bool (and .def_60 .def_290))
(define-fun .def_292 () Bool (and .def_63 .def_291))
(define-fun .def_293 () Bool (and .def_54 .def_292))
(define-fun .def_294 () Bool (and .def_56 .def_293))
(define-fun .def_295 () Bool (and .def_65 .def_294))
(define-fun .def_296 () Bool (and .def_69 .def_295))
(define-fun .def_297 () Bool (and .def_73 .def_296))
(define-fun .def_298 () Bool (and .def_131 .def_297))
(define-fun .def_299 () Bool (and .def_52 .def_298))
(define-fun .def_320 () Bool (or .def_299 .def_319))
(define-fun .def_50 () Int (! |.x{759}| :next |.x{1077}|))
(define-fun .def_121 () Bool (= .def_50 |.x{1077}|))
(define-fun .def_321 () Bool (and .def_121 .def_320))
(define-fun .def_270 () Bool (= |.x{646}| 0))
(define-fun .def_277 () Bool (or |.x{1032}| .def_270))
(define-fun .def_278 () Bool (and .def_61 .def_277))
(define-fun .def_279 () Bool (and .def_115 .def_278))
(define-fun .def_141 () Int (* 4 .def_42))
(define-fun .def_144 () Int (+ .def_141 .def_48))
(define-fun .def_143 () (Array Int Int) (select .def_14 .def_34))
(define-fun .def_253 () Int (select .def_143 .def_144))
(define-fun .def_255 () Bool (= .def_253 |.x{646}|))
(define-fun .def_256 () Bool (or .def_52 .def_255))
(define-fun .def_280 () Bool (and .def_256 .def_279))
(define-fun .def_281 () Bool (and .def_119 .def_280))
(define-fun .def_282 () Bool (and .def_60 .def_281))
(define-fun .def_283 () Bool (and .def_63 .def_282))
(define-fun .def_284 () Bool (and .def_54 .def_283))
(define-fun .def_285 () Bool (and .def_56 .def_284))
(define-fun .def_286 () Bool (and .def_65 .def_285))
(define-fun .def_287 () Bool (and .def_69 .def_286))
(define-fun .def_288 () Bool (and .def_73 .def_287))
(define-fun .def_289 () Bool (and .def_131 .def_288))
(define-fun .def_322 () Bool (or .def_289 .def_321))
(define-fun .def_167 () Bool (= .def_42 |.x{1073}|))
(define-fun .def_40 () Int (! |.x{754}| :next |.x{1072}|))
(define-fun .def_117 () Bool (= .def_40 |.x{1072}|))
(define-fun .def_274 () Bool (and .def_117 .def_167))
(define-fun .def_275 () Bool (and |.loc{9}| .def_274))
(define-fun .def_178 () Bool (not |.loc{7}|))
(define-fun .def_276 () Bool (and .def_178 .def_275))
(define-fun .def_323 () Bool (and .def_276 .def_322))
(define-fun .def_271 () Bool (not .def_270))
(define-fun .def_272 () Bool (or |.x{1032}| .def_271))
(define-fun .def_257 () Bool (and .def_116 .def_256))
(define-fun .def_258 () Bool (and .def_119 .def_257))
(define-fun .def_259 () Bool (and .def_63 .def_258))
(define-fun .def_260 () Bool (and .def_54 .def_259))
(define-fun .def_261 () Bool (and .def_56 .def_260))
(define-fun .def_262 () Bool (and .def_65 .def_261))
(define-fun .def_263 () Bool (and .def_69 .def_262))
(define-fun .def_264 () Bool (and .def_73 .def_263))
(define-fun .def_265 () Bool (and |.loc{7}| .def_264))
(define-fun .def_266 () Bool (and |.loc{8}| .def_265))
(define-fun .def_267 () Bool (and .def_131 .def_266))
(define-fun .def_108 () Bool (not |.loc{9}|))
(define-fun .def_268 () Bool (and .def_108 .def_267))
(define-fun .def_155 () Int (* (- 1) |.x{1073}|))
(define-fun .def_156 () Int (+ .def_42 .def_155))
(define-fun .def_157 () Bool (= .def_156 (- 1)))
(define-fun .def_158 () Bool (or |.x{1032}| .def_157))
(define-fun .def_269 () Bool (and .def_158 .def_268))
(define-fun .def_273 () Bool (and .def_269 .def_272))
(define-fun .def_324 () Bool (or .def_273 .def_323))
(define-fun .def_246 () Bool (not .def_245))
(define-fun .def_247 () Bool (or |.x{1032}| .def_246))
(define-fun .def_118 () Bool (and .def_116 .def_117))
(define-fun .def_183 () Bool (and .def_118 .def_167))
(define-fun .def_184 () Bool (and .def_119 .def_183))
(define-fun .def_185 () Bool (and .def_121 .def_184))
(define-fun .def_240 () Bool (and .def_60 .def_185))
(define-fun .def_241 () Bool (and .def_58 .def_240))
(define-fun .def_242 () Bool (and .def_65 .def_241))
(define-fun .def_243 () Bool (and .def_67 .def_242))
(define-fun .def_244 () Bool (and .def_71 .def_243))
(define-fun .def_248 () Bool (and .def_244 .def_247))
(define-fun .def_249 () Bool (and |.loc{7}| .def_248))
(define-fun .def_250 () Bool (and |.loc{9}| .def_249))
(define-fun .def_251 () Bool (and .def_236 .def_250))
(define-fun .def_252 () Bool (and .def_131 .def_251))
(define-fun .def_325 () Bool (or .def_252 .def_324))
(define-fun .def_220 () Bool (and .def_117 .def_219))
(define-fun .def_221 () Bool (and .def_167 .def_220))
(define-fun .def_222 () Bool (and .def_119 .def_221))
(define-fun .def_223 () Bool (and .def_121 .def_222))
(define-fun .def_224 () Bool (and .def_60 .def_223))
(define-fun .def_225 () Bool (and .def_58 .def_224))
(define-fun .def_226 () Bool (and .def_67 .def_225))
(define-fun .def_227 () Bool (and .def_71 .def_226))
(define-fun .def_228 () Bool (and |.loc{7}| .def_227))
(define-fun .def_229 () Bool (and |.loc{9}| .def_228))
(define-fun .def_237 () Bool (and .def_229 .def_236))
(define-fun .def_238 () Bool (and .def_131 .def_237))
(define-fun .def_239 () Bool (and .def_52 .def_238))
(define-fun .def_326 () Bool (or .def_239 .def_325))
(define-fun .def_110 () Bool (= .def_14 |.x{1059}|))
(define-fun .def_327 () Bool (and .def_110 .def_326))
(define-fun .def_199 () Int (+ .def_48 4092))
(define-fun .def_200 () (Array Int Int) (store .def_143 .def_199 0))
(define-fun .def_201 () (Array Int (Array Int Int)) (store .def_14 .def_34 .def_200))
(define-fun .def_202 () Bool (= |.x{1059}| .def_201))
(define-fun .def_91 () Bool (= |.x{1073}| 0))
(define-fun .def_203 () Bool (and .def_91 .def_202))
(define-fun .def_204 () Bool (or .def_52 .def_203))
(define-fun .def_205 () Bool (and .def_118 .def_204))
(define-fun .def_206 () Bool (and .def_119 .def_205))
(define-fun .def_207 () Bool (and .def_121 .def_206))
(define-fun .def_208 () Bool (and .def_63 .def_207))
(define-fun .def_209 () Bool (and .def_56 .def_208))
(define-fun .def_210 () Bool (and .def_65 .def_209))
(define-fun .def_211 () Bool (and .def_67 .def_210))
(define-fun .def_212 () Bool (and .def_69 .def_211))
(define-fun .def_213 () Bool (and .def_73 .def_212))
(define-fun .def_214 () Bool (and |.loc{7}| .def_213))
(define-fun .def_215 () Bool (and |.loc{8}| .def_214))
(define-fun .def_216 () Bool (and .def_131 .def_215))
(define-fun .def_217 () Bool (and .def_108 .def_216))
(define-fun .def_328 () Bool (or .def_217 .def_327))
(define-fun .def_186 () Bool (and .def_63 .def_185))
(define-fun .def_187 () Bool (and .def_54 .def_186))
(define-fun .def_188 () Bool (and .def_65 .def_187))
(define-fun .def_189 () Bool (and .def_69 .def_188))
(define-fun .def_190 () Bool (and .def_73 .def_189))
(define-fun .def_191 () Bool (and .def_71 .def_190))
(define-fun .def_192 () Bool (and |.loc{8}| .def_191))
(define-fun .def_193 () Bool (and .def_178 .def_192))
(define-fun .def_194 () Bool (and .def_131 .def_193))
(define-fun .def_195 () Bool (and .def_108 .def_194))
(define-fun .def_196 () Bool (and .def_110 .def_195))
(define-fun .def_197 () Bool (and .def_52 .def_196))
(define-fun .def_329 () Bool (or .def_197 .def_328))
(define-fun .def_134 () Bool (<= 1023 .def_42))
(define-fun .def_163 () Bool (or .def_52 .def_134))
(define-fun .def_164 () Bool (and .def_61 .def_163))
(define-fun .def_165 () Bool (and .def_115 .def_164))
(define-fun .def_166 () Bool (and .def_117 .def_165))
(define-fun .def_168 () Bool (and .def_166 .def_167))
(define-fun .def_169 () Bool (and .def_119 .def_168))
(define-fun .def_170 () Bool (and .def_121 .def_169))
(define-fun .def_171 () Bool (and .def_63 .def_170))
(define-fun .def_172 () Bool (and .def_54 .def_171))
(define-fun .def_173 () Bool (and .def_65 .def_172))
(define-fun .def_174 () Bool (and .def_69 .def_173))
(define-fun .def_175 () Bool (and .def_71 .def_174))
(define-fun .def_176 () Bool (and .def_73 .def_175))
(define-fun .def_177 () Bool (and |.loc{8}| .def_176))
(define-fun .def_179 () Bool (and .def_177 .def_178))
(define-fun .def_180 () Bool (and .def_131 .def_179))
(define-fun .def_181 () Bool (and .def_108 .def_180))
(define-fun .def_182 () Bool (and .def_110 .def_181))
(define-fun .def_330 () Bool (or .def_182 .def_329))
(define-fun .def_32 () Int (! |.x{750}| :next |.x{1068}|))
(define-fun .def_161 () Bool (= .def_32 |.x{1068}|))
(define-fun .def_44 () Int (! |.x{756}| :next |.x{1074}|))
(define-fun .def_160 () Bool (= .def_44 |.x{1074}|))
(define-fun .def_162 () Bool (and .def_160 .def_161))
(define-fun .def_331 () Bool (and .def_162 .def_330))
(define-fun .def_145 () (Array Int Int) (store .def_143 .def_144 .def_32))
(define-fun .def_146 () (Array Int (Array Int Int)) (store .def_14 .def_34 .def_145))
(define-fun .def_147 () Bool (= |.x{1059}| .def_146))
(define-fun .def_139 () Bool (<= .def_32 2147483647))
(define-fun .def_148 () Bool (and .def_139 .def_147))
(define-fun .def_137 () Bool (<= (- 2147483648) .def_32))
(define-fun .def_149 () Bool (and .def_137 .def_148))
(define-fun .def_135 () Bool (not .def_134))
(define-fun .def_150 () Bool (and .def_135 .def_149))
(define-fun .def_151 () Bool (or .def_52 .def_150))
(define-fun .def_120 () Bool (and .def_118 .def_119))
(define-fun .def_122 () Bool (and .def_120 .def_121))
(define-fun .def_123 () Bool (and .def_60 .def_122))
(define-fun .def_124 () Bool (and .def_63 .def_123))
(define-fun .def_125 () Bool (and .def_54 .def_124))
(define-fun .def_126 () Bool (and .def_65 .def_125))
(define-fun .def_127 () Bool (and .def_69 .def_126))
(define-fun .def_128 () Bool (and .def_71 .def_127))
(define-fun .def_129 () Bool (and .def_73 .def_128))
(define-fun .def_130 () Bool (and |.loc{7}| .def_129))
(define-fun .def_132 () Bool (and .def_130 .def_131))
(define-fun .def_152 () Bool (and .def_132 .def_151))
(define-fun .def_153 () Bool (and .def_108 .def_152))
(define-fun .def_159 () Bool (and .def_153 .def_158))
(define-fun .def_332 () Bool (or .def_159 .def_331))
(define-fun .def_113 () Bool (= .def_26 |.x{1065}|))
(define-fun .def_38 () Int (! |.x{753}| :next |.x{1071}|))
(define-fun .def_112 () Bool (= .def_38 |.x{1071}|))
(define-fun .def_114 () Bool (and .def_112 .def_113))
(define-fun .def_333 () Bool (and .def_114 .def_332))
(define-fun .def_335 () Bool (and .def_333 .def_334))
(define-fun .def_337 () Bool (and .def_335 .def_336))
(define-fun .def_103 () Bool (= |.x{1065}| 0))
(define-fun .def_102 () Bool (= |.x{1061}| 0))
(define-fun .def_104 () Bool (and .def_102 .def_103))
(define-fun .def_100 () (Array Int Int) (store .def_10 0 0))
(define-fun .def_101 () Bool (= |.x{91}| .def_100))
(define-fun .def_105 () Bool (and .def_101 .def_104))
(define-fun .def_106 () Bool (or .def_52 .def_105))
(define-fun .def_94 () (Array Int Int) (store .def_22 |.x{1069}| 4096))
(define-fun .def_95 () Bool (= |.x{1063}| .def_94))
(define-fun .def_87 () Bool (<= |.x{1056}| |.x{1069}|))
(define-fun .def_88 () Bool (not .def_87))
(define-fun .def_84 () Bool (= |.x{1069}| 0))
(define-fun .def_85 () Bool (not .def_84))
(define-fun .def_82 () (Array Int Int) (store |.x{91}| |.x{1069}| 1))
(define-fun .def_83 () Bool (= |.x{1057}| .def_82))
(define-fun .def_86 () Bool (and .def_83 .def_85))
(define-fun .def_89 () Bool (and .def_86 .def_88))
(define-fun .def_79 () Int (select |.x{91}| |.x{1069}|))
(define-fun .def_80 () Bool (= .def_79 0))
(define-fun .def_90 () Bool (and .def_80 .def_89))
(define-fun .def_92 () Bool (and .def_90 .def_91))
(define-fun .def_96 () Bool (and .def_92 .def_95))
(define-fun .def_77 () Bool (= |.x{1076}| 0))
(define-fun .def_97 () Bool (and .def_77 .def_96))
(define-fun .def_98 () Bool (or |.x{1032}| .def_97))
(define-fun .def_62 () Bool (and .def_60 .def_61))
(define-fun .def_64 () Bool (and .def_62 .def_63))
(define-fun .def_66 () Bool (and .def_64 .def_65))
(define-fun .def_68 () Bool (and .def_66 .def_67))
(define-fun .def_70 () Bool (and .def_68 .def_69))
(define-fun .def_72 () Bool (and .def_70 .def_71))
(define-fun .def_74 () Bool (and .def_72 .def_73))
(define-fun .def_75 () Bool (and |.loc{7}| .def_74))
(define-fun .def_99 () Bool (and .def_75 .def_98))
(define-fun .def_107 () Bool (and .def_99 .def_106))
(define-fun .def_109 () Bool (and .def_107 .def_108))
(define-fun .def_111 () Bool (and .def_109 .def_110))
(define-fun .def_338 () Bool (or .def_111 .def_337))
(define-fun .def_350 () Bool (! (and .def_338 .def_349) :trans true))
(define-fun .def_365 () Bool (and .def_56 .def_67))
(define-fun .def_366 () Bool (and .def_58 .def_365))
(define-fun .def_367 () Bool (and .def_52 .def_366))
(define-fun .def_368 () Bool (! (not .def_367) :invar-property 0))
(assert true)
